language Essence 1.3

letting length be 4
$letting mesh_avoidance be {(sequence(1,3,2), relation((0,0),(1,0),(2,0),(3,0),(1,1),(1,2),(1,3),(0,2),(2,2),(3,2)))}
letting bivincular_avoidance be {(sequence(1,3,2), {1}, {0,2})}


$ 18 Solution for avoidance should be
$ Avoiding pattern
$ 1234, 2134, 2314 ,2341, 3124, 3214, 3241, 3412, 3421, 4123, 4213, 4231, 4312, 4321

$ Contains pattern but breaks mesh
$ 1243, 2413, 2431, 3142